c description: Random 3-CNF over 7 variables and 14 clauses
p cnf 7 14
-1 -3 -4 0
3 -5 -7 0
-1 4 5 0
-1 4 -6 0
-1 5 -7 0
3 -4 -6 0
1 2 7 0
-1 -4 6 0
-1 -2 -3 0
1 3 4 0
-3 4 -7 0
-1 3 -6 0
2 -5 6 0
1 5 7 0